p cnf 76 136                
-4 -3 -7 0
7 -9 0
3 4 -8 0
8 -9 0
9 -13 0
-6 -5 -10 0
10 -12 0
5 6 -11 0
11 -12 0
12 -13 0
-3 -14 0
4 -14 0
3 -4 14 0
-1 14 -15 0
1 -14 -15 0
14 -14 -15 0
15 -18 0
-5 -16 0
6 -16 0
5 -6 16 0
-2 16 -17 0
2 -16 -17 0
16 -16 -17 0
17 -18 0
2 -23 0
-6 -19 0
-4 -19 0
6 4 19 0
19 -21 0
3 -20 0
5 -20 0
-3 -5 20 0
20 -21 0
-19 -20 21 0
21 -23 0
-2 -21 23 0
-23 -26 0
21 -26 0
23 26 -27 0
27 28 0
1 -22 0
21 -22 0
-1 -21 22 0
-22 -24 0
21 -24 0
22 24 -25 0
25 28 0
-28 -60 0
23 -60 0
2 -33 0
-5 -29 0
-4 -29 0
5 4 29 0
29 -31 0
3 -30 0
6 -30 0
-3 -6 30 0
30 -31 0
-29 -30 31 0
31 -33 0
-2 -31 33 0
-33 -36 0
31 -36 0
33 36 -37 0
37 38 0
1 -32 0
31 -32 0
-1 -31 32 0
-32 -34 0
31 -34 0
32 34 -35 0
35 38 0
-38 -61 0
36 -61 0
2 -43 0
-6 -39 0
-3 -39 0
6 3 39 0
39 -41 0
4 -40 0
5 -40 0
-4 -5 40 0
40 -41 0
-39 -40 41 0
41 -43 0
-2 -41 43 0
-43 -46 0
41 -46 0
43 46 -47 0
47 48 0
1 -42 0
41 -42 0
-1 -41 42 0
-42 -44 0
41 -44 0
42 44 -45 0
45 48 0
-48 -64 0
43 -64 0
2 -53 0
-5 -49 0
-3 -49 0
5 3 49 0
49 -51 0
4 -50 0
6 -50 0
-4 -6 50 0
50 -51 0
-49 -50 51 0
51 -53 0
-2 -51 53 0
-53 -56 0
51 -56 0
53 56 -57 0
57 58 0
1 -52 0
51 -52 0
-1 -51 52 0
-52 -54 0
51 -54 0
52 54 -55 0
55 58 0
-58 -65 0
56 -65 0
-28 -68 0
22 -68 0
-38 -70 0
32 -70 0
-48 -71 0
44 -71 0
-58 -73 0
54 -73 0
60 61 64 65 68 70 71 73 -75 0
13 0
18 0
75 0
